Instance_3.txt
J = 6
I = 4
C = 50
P = 3
Omega = 3
f = {1: 15, 2: 8, 3: 3, 4: 6, 5: 14, 6: 6}
g = {1: 2, 2: 4, 3: 3, 4: 5, 5: 1, 6: 1}
l = {(1, 1): 3, (1, 2): 8, (1, 3): 9, (1, 4): 9, (1, 5): 10, (1, 6): 3, (2, 1): 7, (2, 2): 10, (2, 3): 6, (2, 4): 5, (2, 5): 2, (2, 6): 5, (3, 1): 7, (3, 2): 2, (3, 3): 4, (3, 4): 5, (3, 5): 10, (3, 6): 3, (4, 1): 5, (4, 2): 5, (4, 3): 5, (4, 4): 9, (4, 5): 2, (4, 6): 3}
d = {(1, 1): 10, (1, 2): 10, (1, 3): 1, (2, 1): 5, (2, 2): 8, (2, 3): 4, (3, 1): 3, (3, 2): 8, (3, 3): 3, (4, 1): 1, (4, 2): 1, (4, 3): 5}
