Instance_3.sol
# Solution for model Scenatio_[1, 2, 3]
# Objective value = 438
y[1] 1
y[2] 0
y[3] 0
y[4] 1
y[5] 0
y[6] 0
y[7] 0
y[8] 0
y[9] 0
y[10] 0
w[1] 60
w[2] 0
w[3] 0
w[4] 50
w[5] 0
w[6] 0
w[7] 0
w[8] 0
w[9] 0
w[10] 0
x[1,1,1] 1
x[1,1,2] 1
x[1,1,3] 0
x[1,2,1] 0
x[1,2,2] 0
x[1,2,3] 0
x[1,3,1] 0
x[1,3,2] 0
x[1,3,3] 0
x[1,4,1] 0
x[1,4,2] 0
x[1,4,3] 1
x[1,5,1] 0
x[1,5,2] 0
x[1,5,3] 0
x[1,6,1] 0
x[1,6,2] 0
x[1,6,3] 0
x[1,7,1] 0
x[1,7,2] 0
x[1,7,3] 0
x[1,8,1] 0
x[1,8,2] 0
x[1,8,3] 0
x[1,9,1] 0
x[1,9,2] 0
x[1,9,3] 0
x[1,10,1] 0
x[1,10,2] 0
x[1,10,3] 0
x[2,1,1] 1
x[2,1,2] 1
x[2,1,3] 6.4285714285714290e-01
x[2,2,1] 0
x[2,2,2] 0
x[2,2,3] 0
x[2,3,1] 0
x[2,3,2] 0
x[2,3,3] 0
x[2,4,1] 0
x[2,4,2] 0
x[2,4,3] 3.5714285714285721e-01
x[2,5,1] 0
x[2,5,2] 0
x[2,5,3] 0
x[2,6,1] 0
x[2,6,2] 0
x[2,6,3] 0
x[2,7,1] 0
x[2,7,2] 0
x[2,7,3] 0
x[2,8,1] 0
x[2,8,2] 0
x[2,8,3] 0
x[2,9,1] 0
x[2,9,2] 0
x[2,9,3] 0
x[2,10,1] 0
x[2,10,2] 0
x[2,10,3] 0
x[3,1,1] 1
x[3,1,2] 1
x[3,1,3] 1
x[3,2,1] 0
x[3,2,2] 0
x[3,2,3] 0
x[3,3,1] 0
x[3,3,2] 0
x[3,3,3] 0
x[3,4,1] 0
x[3,4,2] 0
x[3,4,3] 0
x[3,5,1] 0
x[3,5,2] 0
x[3,5,3] 0
x[3,6,1] 0
x[3,6,2] 0
x[3,6,3] 0
x[3,7,1] 0
x[3,7,2] 0
x[3,7,3] 0
x[3,8,1] 0
x[3,8,2] 0
x[3,8,3] 0
x[3,9,1] 0
x[3,9,2] 0
x[3,9,3] 0
x[3,10,1] 0
x[3,10,2] 0
x[3,10,3] 0
x[4,1,1] 1
x[4,1,2] 1
x[4,1,3] 1
x[4,2,1] 0
x[4,2,2] 0
x[4,2,3] 0
x[4,3,1] 0
x[4,3,2] 0
x[4,3,3] 0
x[4,4,1] 0
x[4,4,2] 0
x[4,4,3] 0
x[4,5,1] 0
x[4,5,2] 0
x[4,5,3] 0
x[4,6,1] 0
x[4,6,2] 0
x[4,6,3] 0
x[4,7,1] 0
x[4,7,2] 0
x[4,7,3] 0
x[4,8,1] 0
x[4,8,2] 0
x[4,8,3] 0
x[4,9,1] 0
x[4,9,2] 0
x[4,9,3] 0
x[4,10,1] 0
x[4,10,2] 0
x[4,10,3] 0
x[5,1,1] 0
x[5,1,2] 0
x[5,1,3] 0
x[5,2,1] 0
x[5,2,2] 0
x[5,2,3] 0
x[5,3,1] 0
x[5,3,2] 0
x[5,3,3] 0
x[5,4,1] 1
x[5,4,2] 1
x[5,4,3] 1
x[5,5,1] 0
x[5,5,2] 0
x[5,5,3] 0
x[5,6,1] 0
x[5,6,2] 0
x[5,6,3] 0
x[5,7,1] 0
x[5,7,2] 0
x[5,7,3] 0
x[5,8,1] 0
x[5,8,2] 0
x[5,8,3] 0
x[5,9,1] 0
x[5,9,2] 0
x[5,9,3] 0
x[5,10,1] 0
x[5,10,2] 0
x[5,10,3] 0
